NAME : portcgen-29-2
COMMENT : portcgen N=29, seed=2
TYPE : TSP
DIMENSION : 29
EDGE_WEIGHT_TYPE : EUC_2D
NODE_COORD_SECTION
1 274756 77208
2 469118 125095
3 -26996 -46902
4 -193209 -111931
5 -98007 -127858
6 222946 -268650
7 193728 148429
8 -353342 -83183
9 248831 -60954
10 -66977 207461
11 63033 28087
12 178184 301051
13 -163679 147758
14 -22943 -189653
15 23997 -33828
16 23807 -7781
17 -73059 157218
18 71767 -301311
19 417050 -65907
20 -221106 205127
21 -169463 -167545
22 181539 235835
23 74890 16847
24 -196926 201253
25 88593 -36511
26 143127 217386
27 183329 67348
28 98402 -378606
29 303583 96197
